(set-option :print-success false)
(set-logic QF_UF)
(declare-sort x38 0)
(declare-sort x77 0)
(declare-sort x61 0)
(declare-sort x9 0)
(declare-sort x71 0)
(declare-fun x49 () Bool)
(declare-fun x31 () Bool)
(declare-fun x28 () Bool)
(declare-fun x92 () Bool)
(declare-fun x14 () x71)
(declare-fun x36 () x71)
(declare-fun x54 () x38)
(declare-fun x3 () x61)
(declare-fun x8 () x71)
(declare-fun x56 () Bool)
(declare-fun x55 () x61)
(declare-fun x80 () x71)
(declare-fun x91 () x61)
(declare-fun x21 () x71)
(declare-fun x65 () Bool)
(declare-fun x83 () x61)
(declare-fun x87 () x71)
(declare-fun x63 () x61)
(declare-fun x42 () x71)
(declare-fun x88 () x71)
(declare-fun x33 () Bool)
(declare-fun x57 () x61)
(declare-fun x85 () x71)
(declare-fun x32 () x71)
(declare-fun x52 () x61)
(declare-fun x17 () Bool)
(declare-fun x59 (Bool x9) x71)
(declare-fun x11 () x38)
(declare-fun x2 () x71)
(declare-fun x44 () x71)
(declare-fun x25 () x71)
(declare-fun x23 () x71)
(declare-fun x47 () x71)
(declare-fun x4 () Bool)
(declare-fun x35 () Bool)
(declare-fun x29 () x71)
(declare-fun x22 () x61)
(declare-fun x67 () Bool)
(declare-fun x79 () x61)
(declare-fun x43 () x61)
(declare-fun x39 () x38)
(declare-fun x6 () Bool)
(declare-fun x89 () Bool)
(declare-fun x86 () Bool)
(declare-fun x48 () Bool)
(declare-fun x30 () x71)
(declare-fun x58 () x71)
(declare-fun x46 () Bool)
(declare-fun x15 () x61)
(declare-fun x41 () x61)
(declare-fun x72 () x71)
(declare-fun x66 () x61)
(declare-fun x64 () x38)
(declare-fun x45 () x61)
(declare-fun x26 () Bool)
(declare-fun x10 () x38)
(declare-fun x68 () x71)
(declare-fun x70 () x71)
(declare-fun x82 () x71)
(declare-fun x40 () x71)
(declare-fun x20 () x71)
(declare-fun x7 () x61)
(declare-fun x24 () x71)
(declare-fun x50 () Bool)
(declare-fun x73 () Bool)
(declare-fun x18 () x71)
(declare-fun x62 () Bool)
(declare-fun x76 () x71)
(declare-fun x13 () Bool)
(declare-fun x74 () x77)
(declare-fun x90 () x61)
(declare-fun x75 () Bool)
(declare-fun x51 () x71)
(declare-fun x1 () x71)
(declare-fun x81 () Bool)
(declare-fun x34 () x71)
(declare-fun x19 () x9)
(declare-fun x69 () x71)
(declare-fun x16 () x77)
(declare-fun x27 () Bool)
(declare-fun x5 () x71)
(declare-fun x84 () Bool)
(declare-fun x37 () x61)
(declare-fun x60 () x38)
(declare-fun x12 () x77)
(declare-fun x78 () x61)
(declare-fun x53 () x71)
(declare-fun x93 () x61)
(assert (= (and x86 x17 x26 x6 x46 x33 x56 x35 x27 x81) x67))
(assert (= x13 (or x84 x65)))
(assert (= x73 (not x46)))
(assert (= (x59 x73 x19) x87))
(assert (= x65 (not (= x64 x54))))
(assert (= x28 (= x52 x57)))
(assert (= x4 (or x28 x31)))
(assert (= x81 (= x60 x64)))
(assert (= x86 (= x16 x12)))
(assert (distinct x91 x3 x79 x22 x43 x37 x78 x90 x15 x83 x66 x41 x55 x7 x45 x93 x63))
(assert (= x62 (not x26)))
(assert (= x84 (= x30 x87)))
(assert (= (not x33) x49))
(assert (= x35 (= x74 x12)))
(assert (distinct x10 x60 x39 x11 x54))
(assert (= (= x89 x49) x6))
(assert (= (= x90 x57) x56))
(assert (= (not x17) x50))
(assert (= x89 (and x13 x4)))
(assert (= (= x52 x90) x27))
(assert x67)
(assert (distinct x80 x88 x40 x18 x85 x30 x21 x44 x68 x2 x1 x58 x29 x34 x20 x42 x23 x24 x51 x5 x32 x76 x47 x82 x70 x8 x14 x69 x25 x53 x72))
(assert (= x31 (not (= x11 x64))))
(check-sat)
(exit)
